
  32   50
   9   10   10   16   13   13   13   18   17    6   10   12   10   12   10   10   12   11    3   13   14    9    4    6    8   11    9   16   10   17    7   10    0    0    0    0    0    0    0    0    0    0    0    0    0    0    0    0    0    0

   0   0   0   0   0   0   0   0   0   0   0   0   0   0   0   0   0   0   0   0   0   0   0   0   0   0   0   0   0   0   0   0   0   0   0   0   0   0   0   0   0   0   0   0   0   0   0   0   0   0   0  13 2 3 5 6 9 10 11 12 13 14 15 16 26 
  10   0   0   0   0   0   0   0   0   0   6   5   0   0   0   0   0   0   6   0   0   0   0   0   0   2   0   0   0   0   0   0   0   0   0   0   0   0   0   0   0   0   0   0   0   0   0   0   0   0   0   6 24 22 20 19 8 4 
   4   0   0   0   0   0   0   8   0   0   0   0   0   0   0   3   3   0   0   0   0   0   0   0   0   0   0   0   0   0   0   0   0   0   0   0   0   0   0   0   0   0   0   0   0   0   0   0   0   0   0   4 25 21 19 17 
   1   0   0   0   9   0   0   0   0   0   0   0   0   8   0   0   0   0   0   0   4   0   0   0   0   0   0   0   0   0   6   0   0   0   0   0   0   0   0   0   0   0   0   0   0   0   0   0   0   0   0   3 21 18 7 
  10   0   4   9   0   0   0   0   0   0   0   0   0   0   0   0   0   0   0   0   0   0   0   0   2   0   0   0   0   8   0   0   0   0   0   0   0   0   0   0   0   0   0   0   0   0   0   0   0   0   0   6 31 29 25 24 23 19 
   9   0   0   0   0   5   7   0   0   6   0   0   7   0   0   0   0   0   0   0   0   4   0   0   0   0   8   0   0   0   0   0   0   0   0   0   0   0   0   0   0   0   0   0   0   0   0   0   0   0   0   5 31 30 25 19 18 
   7   0   0   7   0   0   0   0   8   0   0   0   8   0   0   0   0   0   0   0   0   0   0   0   0   0   0   8   0   0   0   0   0   0   0   0   0   0   0   0   0   0   0   0   0   0   0   0   0   0   0   4 31 28 27 17 
   2   9   0   0   0   0   0   0   0   0   5   0   0   0   0   8   0   0   0   0   0   0   0   0   0   2   0   0   0   0   8   0   0   0   0   0   0   0   0   0   0   0   0   0   0   0   0   0   0   0   0   4 31 28 27 17 
   8   0   0   0   0   0   0   0   0   0   0   0   0   0   0   0   0   0   0   0   0   0   0   0   0   0   0   0   0   0   0   0   0   0   0   0   0   0   0   0   0   0   0   0   0   0   0   0   0   0   0   4 29 25 24 20 
   6   0   0   0   0   0   0   8   0   0   0   0   0   0   5   0   0   0   0   0   0   0   0   0   0   0   0   0   0   3   0   0   0   0   0   0   0   0   0   0   0   0   0   0   0   0   0   0   0   0   0   3 27 25 17 
   3   0   0   1   0   0   0   1   0   0   0   0   0   0   0   9   0   0   0   3   0   0   0   0   2   0   1   0   0   0  10   0   0   0   0   0   0   0   0   0   0   0   0   0   0   0   0   0   0   0   0   3 27 24 17 
  10   0   0   0   9   0   0   0   0   0   0   0   0   0   0   0   0   0   0   0   0   0   7   0   1   0   0   0   0   0   0   3   0   0   0   0   0   0   0   0   0   0   0   0   0   0   0   0   0   0   0   3 31 24 20 
   1   3   0   0   1   0   0   0   0   0   0   5   0  10   6   0   9   8   0   0   0   0   0   0   0   0   0   0   0   0   0   0   0   0   0   0   0   0   0   0   0   0   0   0   0   0   0   0   0   0   0   4 30 29 27 25 
   4   0   0   0   4   0   9   0   0   0   0   0   0   0   0   0   0   0   0   0   0   0   0   0   0   0   4   9   9   0   0   0   0   0   0   0   0   0   0   0   0   0   0   0   0   0   0   0   0   0   0   3 27 24 18 
   9   0   0   0   0   0   0   0   0   0   0   0   1   0   0   0   0   0   0   0   0   4   0   0   1   4   0   0   0   0   0   0   0   0   0   0   0   0   0   0   0   0   0   0   0   0   0   0   0   0   0   3 27 24 18 
   2   0   0   0   0   0   0   0   0   0   0   0   0   0   5   0   0   0   0   0   0   0   0   0   0   0   0   1   0   0   0   0   0   0   0   0   0   0   0   0   0   0   0   0   0   0   0   0   0   0   0   3 29 27 24 
   4   0   0   0   0  10   0   0   2   0   0   0   0   0   0   0   0  10   2   0   0   0   0   0   6   0   0   0   0   9   0   0   0   0   0   0   0   0   0   0   0   0   0   0   0   0   0   0   0   0   0   2 29 23 
   2   0   3   0   8   0   0   0   0   0   0   0   0   0   4   0   0   0   0   0   0   0   0   0   0   0   0   0   0   0   0   0   2   0   0   0   0   0   0   0   0   0   0   0   0   0   0   0   0   0   0   2 29 28 
   1   0   0   0   0   0   0   4   0   0   0  10   7   0   5   0   0   0   0   0   0   0   9   0   0   0   2   0   4   0   5   0   0   0   0   0   0   0   0   0   0   0   0   0   0   0   0   0   0   0   0   2 28 27 
   5   0   0   0   0   0   0   0   0   0   0   0   0   0   0   0   0   0   0   0   0   0   0   0   0   0   0   0   7   0   0   0   0   0   0   0   0   0   0   0   0   0   0   0   0   0   0   0   0   0   0   2 30 27 
   8   0   0   0   0   0   0   0   5   0   0   0   0   0   0   0   0   0   2   0   0   0   9   0   0   0   0   0   0   0   0   0   0   0   0   0   0   0   0   0   0   0   0   0   0   0   0   0   0   0   0   2 31 27 
   4   0   0   0   0   0   0   4  10   0   0   0   0   0   0   0   0   0   0   0   0   0   0   4   2   0   0   0   0   0   0   0   0   0   0   0   0   0   0   0   0   0   0   0   0   0   0   0   0   0   0   2 28 27 
   2   0   0   0   0   1   0   0   0   0   0   4   0   0   0   0   0   0   1   0   0   0   0   0   0   0   0   0   0   0   0   0   0   0   0   0   0   0   0   0   0   0   0   0   0   0   0   0   0   0   0   1 30 
   8   0   0   0   0   0   0   0   0   0   1   0   0   0   0   0   1   0  10   0   4   3   0   0   0   7   3   0   0   0   0   0   0   0   0   0   0   0   0   0   0   0   0   0   0   0   0   0   0   0   0   1 28 
   7   0   0   0   0   0   0   0   0   0   0   0   7   0   0   0   0   0   0   0   0   0   0   0   0   0   0   0   9   7   3   0   9   0   0   0   0   0   0   0   0   0   0   0   0   0   0   0   0   0   0   1 28 
   7   0   8   0   7   0   0   0   0   0   0   0   0   0   0   0   0   6   0   0   0   9   0   0   0   3   0   0   0   0   0   5   0   0   0   0   0   0   0   0   0   0   0   0   0   0   0   0   0   0   0   1 27 
   3   0   0   0   0   0   0   0   0   9   0   0   0   0   0   6   0   0   0   0   9   0   0   0   0   0   0   0   0   0   6   0   0   0   0   0   0   0   0   0   0   0   0   0   0   0   0   0   0   0   0   1 32
   8   0   0   0   0   6   0   0   0   6   0   0   0   3   0   0   0   0   0   0   0   0   0   0   1   0   0   0   0   0   0   0   0   0   0   0   0   0   0   0   0   0   0   0   0   0   0   0   0   0   0   1 32
   7   0   0   0   0   0   0   0   6   0   0   0   0   0   1   0   0   0   0   0   0   0   0   0   0   0   0   0   0   0   1   7   0   0   0   0   0   0   0   0   0   0   0   0   0   0   0   0   0   0   0   1 32
   8   0   0   0   0   0   0   0   0   0   0   0   0   0   0   0   0   0   0   0   0   0   0   0   0   0   0   7   8   0   0   0   3   0   0   0   0   0   0   0   0   0   0   0   0   0   0   0   0   0   0   1 32
   5   0   0  10   0   0   0   0   0   7   0   0   0   0   0   0   1   0   0   0   7   0   0   0   0   0   0   0   0   1   0   0   0   0   0   0   0   0   0   0   0   0   0   0   0   0   0   0   0   0   0   1 32
   0   0   0   0   0   0   0   0   0   0   0   0   0   0   0   0   0   0   0   0   0   0   0   0   0   0   0   0   0   0   0   0   0   0   0   0   0   0   0   0   0   0   0   0   0   0   0   0   0   0   0   0 
